747333
37,202,5,103,211,44,229,203,171,167,92,212,58,220,51,79,24,122,84,187,123,130,60,181,147,172,180,135,205,217,69,85,118,194,192,83,166,78,94,56,75,173,10,142,196,213,45,124,226,18,133,110,47,224,46,16,12,219,29,63,43,175,222,4,155,210,144,143,25,21,90,95,165,100,183,115,160,106,195,178,191,36,33,204,74,214,77,54,129,80,39,26,168,101,61,86,34,93,107,49,150,27,88,8,67,136,14,7,119,96,193,164,13,109,200,9,197,199,64,153,163,28,113,190,151,121,176,225,68,22,158,207,2,184,188,15,59,137,50,97,41,159,112,72,208,125,138,57,131,148,114,1,81,157,179,120,76,221,40,127,105,140,218,23,65,189,98,201,104,215,99,52,91,174,53,55,17,42,206,38,66,48,117,70,139,134,82,156,73,146,126,30,198,177,162,31,62,71,0,6,209,116,19,182,35,161,228,132,154,111,141,169,149,170,185,89,108,87,227,3,20,216,152,128,32,223,145,11,186,102,